p edge 55 54 24
e 1 17
e 1 48
e 1 24
e 1 22
e 2 5
e 2 27
e 2 45
e 3 36
e 4 14
e 4 26
e 4 16
e 6 9
e 7 45
e 7 49
e 7 24
e 8 42
e 9 39
e 10 28
e 11 43
e 12 25
e 12 40
e 12 42
e 12 13
e 12 55
e 13 19
e 13 28
e 15 29
e 15 35
e 16 20
e 16 49
e 18 50
e 18 52
e 18 23
e 20 43
e 21 44
e 21 55
e 22 39
e 23 35
e 26 34
e 27 33
e 27 41
e 28 46
e 29 38
e 30 54
e 31 50
e 32 41
e 35 39
e 35 46
e 36 50
e 37 48
e 39 53
e 47 54
e 49 51
e 52 54
